(set-logic QF_LRA)
(declare-fun T1 () Real )
(declare-fun T2 () Real )
(declare-fun T3 () Real )
(declare-fun T4 () Real )
(declare-fun T5 () Real )
(declare-fun T6 () Real )
(declare-fun T7 () Real )
(declare-fun T8 () Real )
(declare-fun Z () Real )
(assert ( and 
(or ( <= ( + T1 52 ) T2 ) ( <= ( + T2 86 ) T1 ) )
(or ( <= ( + T1 69 )  ( + T2 86 ) ) ( <= ( + T2 143 )( + T1 52 ) ) )
(or ( <= ( + T1 86 )  ( + T2 143 ) ) ( <= ( + T2 228 )( + T1 69 ) ) )
(or ( <= ( + T1 130 )  ( + T2 228 ) ) ( <= ( + T2 252 )( + T1 86 ) ) )
(or ( <= ( + T1 184 )  ( + T2 252 ) ) ( <= ( + T2 284 )( + T1 130 ) ) )
(or ( <= ( + T1 235 )  ( + T2 284 ) ) ( <= ( + T2 291 )( + T1 184 ) ) )
(or ( <= ( + T1 327 )  ( + T2 291 ) ) ( <= ( + T2 373 )( + T1 235 ) ) )
(or ( <= ( + T1 404 )  ( + T2 373 ) ) ( <= ( + T2 381 )( + T1 327 ) ) )
(or ( <= ( + T1 491 )  ( + T2 381 ) ) ( <= ( + T2 479 )( + T1 404 ) ) )
(or ( <= ( + T1 492 )  ( + T2 479 ) ) ( <= ( + T2 482 )( + T1 491 ) ) )
(or ( <= ( + T1 52 ) T3 ) ( <= ( + T3 79 ) T1 ) )
(or ( <= ( + T1 69 )  ( + T3 79 ) ) ( <= ( + T3 95 )( + T1 52 ) ) )
(or ( <= ( + T1 86 )  ( + T3 95 ) ) ( <= ( + T3 120 )( + T1 69 ) ) )
(or ( <= ( + T1 130 )  ( + T3 120 ) ) ( <= ( + T3 169 )( + T1 86 ) ) )
(or ( <= ( + T1 184 )  ( + T3 169 ) ) ( <= ( + T3 226 )( + T1 130 ) ) )
(or ( <= ( + T1 235 )  ( + T3 226 ) ) ( <= ( + T3 227 )( + T1 184 ) ) )
(or ( <= ( + T1 327 )  ( + T3 227 ) ) ( <= ( + T3 237 )( + T1 235 ) ) )
(or ( <= ( + T1 404 )  ( + T3 237 ) ) ( <= ( + T3 239 )( + T1 327 ) ) )
(or ( <= ( + T1 491 )  ( + T3 239 ) ) ( <= ( + T3 270 )( + T1 404 ) ) )
(or ( <= ( + T1 492 )  ( + T3 270 ) ) ( <= ( + T3 277 )( + T1 491 ) ) )
(or ( <= ( + T1 52 ) T4 ) ( <= ( + T4 82 ) T1 ) )
(or ( <= ( + T1 69 )  ( + T4 82 ) ) ( <= ( + T4 165 )( + T1 52 ) ) )
(or ( <= ( + T1 86 )  ( + T4 165 ) ) ( <= ( + T4 188 )( + T1 69 ) ) )
(or ( <= ( + T1 130 )  ( + T4 188 ) ) ( <= ( + T4 238 )( + T1 86 ) ) )
(or ( <= ( + T1 184 )  ( + T4 238 ) ) ( <= ( + T4 316 )( + T1 130 ) ) )
(or ( <= ( + T1 235 )  ( + T4 316 ) ) ( <= ( + T4 344 )( + T1 184 ) ) )
(or ( <= ( + T1 327 )  ( + T4 344 ) ) ( <= ( + T4 444 )( + T1 235 ) ) )
(or ( <= ( + T1 404 )  ( + T4 444 ) ) ( <= ( + T4 465 )( + T1 327 ) ) )
(or ( <= ( + T1 491 )  ( + T4 465 ) ) ( <= ( + T4 470 )( + T1 404 ) ) )
(or ( <= ( + T1 492 )  ( + T4 470 ) ) ( <= ( + T4 509 )( + T1 491 ) ) )
(or ( <= ( + T1 52 ) T5 ) ( <= ( + T5 21 ) T1 ) )
(or ( <= ( + T1 69 )  ( + T5 21 ) ) ( <= ( + T5 111 )( + T1 52 ) ) )
(or ( <= ( + T1 86 )  ( + T5 111 ) ) ( <= ( + T5 206 )( + T1 69 ) ) )
(or ( <= ( + T1 130 )  ( + T5 206 ) ) ( <= ( + T5 263 )( + T1 86 ) ) )
(or ( <= ( + T1 184 )  ( + T5 263 ) ) ( <= ( + T5 329 )( + T1 130 ) ) )
(or ( <= ( + T1 235 )  ( + T5 329 ) ) ( <= ( + T5 355 )( + T1 184 ) ) )
(or ( <= ( + T1 327 )  ( + T5 355 ) ) ( <= ( + T5 419 )( + T1 235 ) ) )
(or ( <= ( + T1 404 )  ( + T5 419 ) ) ( <= ( + T5 466 )( + T1 327 ) ) )
(or ( <= ( + T1 491 )  ( + T5 466 ) ) ( <= ( + T5 551 )( + T1 404 ) ) )
(or ( <= ( + T1 492 )  ( + T5 551 ) ) ( <= ( + T5 564 )( + T1 491 ) ) )
(or ( <= ( + T1 52 ) T6 ) ( <= ( + T6 2 ) T1 ) )
(or ( <= ( + T1 69 )  ( + T6 2 ) ) ( <= ( + T6 17 )( + T1 52 ) ) )
(or ( <= ( + T1 86 )  ( + T6 17 ) ) ( <= ( + T6 45 )( + T1 69 ) ) )
(or ( <= ( + T1 130 )  ( + T6 45 ) ) ( <= ( + T6 123 )( + T1 86 ) ) )
(or ( <= ( + T1 184 )  ( + T6 123 ) ) ( <= ( + T6 186 )( + T1 130 ) ) )
(or ( <= ( + T1 235 )  ( + T6 186 ) ) ( <= ( + T6 270 )( + T1 184 ) ) )
(or ( <= ( + T1 327 )  ( + T6 270 ) ) ( <= ( + T6 349 )( + T1 235 ) ) )
(or ( <= ( + T1 404 )  ( + T6 349 ) ) ( <= ( + T6 373 )( + T1 327 ) ) )
(or ( <= ( + T1 491 )  ( + T6 373 ) ) ( <= ( + T6 410 )( + T1 404 ) ) )
(or ( <= ( + T1 492 )  ( + T6 410 ) ) ( <= ( + T6 471 )( + T1 491 ) ) )
(or ( <= ( + T1 52 ) T7 ) ( <= ( + T7 30 ) T1 ) )
(or ( <= ( + T1 69 )  ( + T7 30 ) ) ( <= ( + T7 101 )( + T1 52 ) ) )
(or ( <= ( + T1 86 )  ( + T7 101 ) ) ( <= ( + T7 144 )( + T1 69 ) ) )
(or ( <= ( + T1 130 )  ( + T7 144 ) ) ( <= ( + T7 148 )( + T1 86 ) ) )
(or ( <= ( + T1 184 )  ( + T7 148 ) ) ( <= ( + T7 168 )( + T1 130 ) ) )
(or ( <= ( + T1 235 )  ( + T7 168 ) ) ( <= ( + T7 240 )( + T1 184 ) ) )
(or ( <= ( + T1 327 )  ( + T7 240 ) ) ( <= ( + T7 272 )( + T1 235 ) ) )
(or ( <= ( + T1 404 )  ( + T7 272 ) ) ( <= ( + T7 344 )( + T1 327 ) ) )
(or ( <= ( + T1 491 )  ( + T7 344 ) ) ( <= ( + T7 437 )( + T1 404 ) ) )
(or ( <= ( + T1 492 )  ( + T7 437 ) ) ( <= ( + T7 525 )( + T1 491 ) ) )
(or ( <= ( + T1 52 ) T8 ) ( <= ( + T8 10 ) T1 ) )
(or ( <= ( + T1 69 )  ( + T8 10 ) ) ( <= ( + T8 75 )( + T1 52 ) ) )
(or ( <= ( + T1 86 )  ( + T8 75 ) ) ( <= ( + T8 152 )( + T1 69 ) ) )
(or ( <= ( + T1 130 )  ( + T8 152 ) ) ( <= ( + T8 208 )( + T1 86 ) ) )
(or ( <= ( + T1 184 )  ( + T8 208 ) ) ( <= ( + T8 282 )( + T1 130 ) ) )
(or ( <= ( + T1 235 )  ( + T8 282 ) ) ( <= ( + T8 324 )( + T1 184 ) ) )
(or ( <= ( + T1 327 )  ( + T8 324 ) ) ( <= ( + T8 357 )( + T1 235 ) ) )
(or ( <= ( + T1 404 )  ( + T8 357 ) ) ( <= ( + T8 446 )( + T1 327 ) ) )
(or ( <= ( + T1 491 )  ( + T8 446 ) ) ( <= ( + T8 487 )( + T1 404 ) ) )
(or ( <= ( + T1 492 )  ( + T8 487 ) ) ( <= ( + T8 556 )( + T1 491 ) ) )
(or ( <= ( + T2 86 ) T3 ) ( <= ( + T3 79 ) T2 ) )
(or ( <= ( + T2 143 )  ( + T3 79 ) ) ( <= ( + T3 95 )( + T2 86 ) ) )
(or ( <= ( + T2 228 )  ( + T3 95 ) ) ( <= ( + T3 120 )( + T2 143 ) ) )
(or ( <= ( + T2 252 )  ( + T3 120 ) ) ( <= ( + T3 169 )( + T2 228 ) ) )
(or ( <= ( + T2 284 )  ( + T3 169 ) ) ( <= ( + T3 226 )( + T2 252 ) ) )
(or ( <= ( + T2 291 )  ( + T3 226 ) ) ( <= ( + T3 227 )( + T2 284 ) ) )
(or ( <= ( + T2 373 )  ( + T3 227 ) ) ( <= ( + T3 237 )( + T2 291 ) ) )
(or ( <= ( + T2 381 )  ( + T3 237 ) ) ( <= ( + T3 239 )( + T2 373 ) ) )
(or ( <= ( + T2 479 )  ( + T3 239 ) ) ( <= ( + T3 270 )( + T2 381 ) ) )
(or ( <= ( + T2 482 )  ( + T3 270 ) ) ( <= ( + T3 277 )( + T2 479 ) ) )
(or ( <= ( + T2 86 ) T4 ) ( <= ( + T4 82 ) T2 ) )
(or ( <= ( + T2 143 )  ( + T4 82 ) ) ( <= ( + T4 165 )( + T2 86 ) ) )
(or ( <= ( + T2 228 )  ( + T4 165 ) ) ( <= ( + T4 188 )( + T2 143 ) ) )
(or ( <= ( + T2 252 )  ( + T4 188 ) ) ( <= ( + T4 238 )( + T2 228 ) ) )
(or ( <= ( + T2 284 )  ( + T4 238 ) ) ( <= ( + T4 316 )( + T2 252 ) ) )
(or ( <= ( + T2 291 )  ( + T4 316 ) ) ( <= ( + T4 344 )( + T2 284 ) ) )
(or ( <= ( + T2 373 )  ( + T4 344 ) ) ( <= ( + T4 444 )( + T2 291 ) ) )
(or ( <= ( + T2 381 )  ( + T4 444 ) ) ( <= ( + T4 465 )( + T2 373 ) ) )
(or ( <= ( + T2 479 )  ( + T4 465 ) ) ( <= ( + T4 470 )( + T2 381 ) ) )
(or ( <= ( + T2 482 )  ( + T4 470 ) ) ( <= ( + T4 509 )( + T2 479 ) ) )
(or ( <= ( + T2 86 ) T5 ) ( <= ( + T5 21 ) T2 ) )
(or ( <= ( + T2 143 )  ( + T5 21 ) ) ( <= ( + T5 111 )( + T2 86 ) ) )
(or ( <= ( + T2 228 )  ( + T5 111 ) ) ( <= ( + T5 206 )( + T2 143 ) ) )
(or ( <= ( + T2 252 )  ( + T5 206 ) ) ( <= ( + T5 263 )( + T2 228 ) ) )
(or ( <= ( + T2 284 )  ( + T5 263 ) ) ( <= ( + T5 329 )( + T2 252 ) ) )
(or ( <= ( + T2 291 )  ( + T5 329 ) ) ( <= ( + T5 355 )( + T2 284 ) ) )
(or ( <= ( + T2 373 )  ( + T5 355 ) ) ( <= ( + T5 419 )( + T2 291 ) ) )
(or ( <= ( + T2 381 )  ( + T5 419 ) ) ( <= ( + T5 466 )( + T2 373 ) ) )
(or ( <= ( + T2 479 )  ( + T5 466 ) ) ( <= ( + T5 551 )( + T2 381 ) ) )
(or ( <= ( + T2 482 )  ( + T5 551 ) ) ( <= ( + T5 564 )( + T2 479 ) ) )
(or ( <= ( + T2 86 ) T6 ) ( <= ( + T6 2 ) T2 ) )
(or ( <= ( + T2 143 )  ( + T6 2 ) ) ( <= ( + T6 17 )( + T2 86 ) ) )
(or ( <= ( + T2 228 )  ( + T6 17 ) ) ( <= ( + T6 45 )( + T2 143 ) ) )
(or ( <= ( + T2 252 )  ( + T6 45 ) ) ( <= ( + T6 123 )( + T2 228 ) ) )
(or ( <= ( + T2 284 )  ( + T6 123 ) ) ( <= ( + T6 186 )( + T2 252 ) ) )
(or ( <= ( + T2 291 )  ( + T6 186 ) ) ( <= ( + T6 270 )( + T2 284 ) ) )
(or ( <= ( + T2 373 )  ( + T6 270 ) ) ( <= ( + T6 349 )( + T2 291 ) ) )
(or ( <= ( + T2 381 )  ( + T6 349 ) ) ( <= ( + T6 373 )( + T2 373 ) ) )
(or ( <= ( + T2 479 )  ( + T6 373 ) ) ( <= ( + T6 410 )( + T2 381 ) ) )
(or ( <= ( + T2 482 )  ( + T6 410 ) ) ( <= ( + T6 471 )( + T2 479 ) ) )
(or ( <= ( + T2 86 ) T7 ) ( <= ( + T7 30 ) T2 ) )
(or ( <= ( + T2 143 )  ( + T7 30 ) ) ( <= ( + T7 101 )( + T2 86 ) ) )
(or ( <= ( + T2 228 )  ( + T7 101 ) ) ( <= ( + T7 144 )( + T2 143 ) ) )
(or ( <= ( + T2 252 )  ( + T7 144 ) ) ( <= ( + T7 148 )( + T2 228 ) ) )
(or ( <= ( + T2 284 )  ( + T7 148 ) ) ( <= ( + T7 168 )( + T2 252 ) ) )
(or ( <= ( + T2 291 )  ( + T7 168 ) ) ( <= ( + T7 240 )( + T2 284 ) ) )
(or ( <= ( + T2 373 )  ( + T7 240 ) ) ( <= ( + T7 272 )( + T2 291 ) ) )
(or ( <= ( + T2 381 )  ( + T7 272 ) ) ( <= ( + T7 344 )( + T2 373 ) ) )
(or ( <= ( + T2 479 )  ( + T7 344 ) ) ( <= ( + T7 437 )( + T2 381 ) ) )
(or ( <= ( + T2 482 )  ( + T7 437 ) ) ( <= ( + T7 525 )( + T2 479 ) ) )
(or ( <= ( + T2 86 ) T8 ) ( <= ( + T8 10 ) T2 ) )
(or ( <= ( + T2 143 )  ( + T8 10 ) ) ( <= ( + T8 75 )( + T2 86 ) ) )
(or ( <= ( + T2 228 )  ( + T8 75 ) ) ( <= ( + T8 152 )( + T2 143 ) ) )
(or ( <= ( + T2 252 )  ( + T8 152 ) ) ( <= ( + T8 208 )( + T2 228 ) ) )
(or ( <= ( + T2 284 )  ( + T8 208 ) ) ( <= ( + T8 282 )( + T2 252 ) ) )
(or ( <= ( + T2 291 )  ( + T8 282 ) ) ( <= ( + T8 324 )( + T2 284 ) ) )
(or ( <= ( + T2 373 )  ( + T8 324 ) ) ( <= ( + T8 357 )( + T2 291 ) ) )
(or ( <= ( + T2 381 )  ( + T8 357 ) ) ( <= ( + T8 446 )( + T2 373 ) ) )
(or ( <= ( + T2 479 )  ( + T8 446 ) ) ( <= ( + T8 487 )( + T2 381 ) ) )
(or ( <= ( + T2 482 )  ( + T8 487 ) ) ( <= ( + T8 556 )( + T2 479 ) ) )
(or ( <= ( + T3 79 ) T4 ) ( <= ( + T4 82 ) T3 ) )
(or ( <= ( + T3 95 )  ( + T4 82 ) ) ( <= ( + T4 165 )( + T3 79 ) ) )
(or ( <= ( + T3 120 )  ( + T4 165 ) ) ( <= ( + T4 188 )( + T3 95 ) ) )
(or ( <= ( + T3 169 )  ( + T4 188 ) ) ( <= ( + T4 238 )( + T3 120 ) ) )
(or ( <= ( + T3 226 )  ( + T4 238 ) ) ( <= ( + T4 316 )( + T3 169 ) ) )
(or ( <= ( + T3 227 )  ( + T4 316 ) ) ( <= ( + T4 344 )( + T3 226 ) ) )
(or ( <= ( + T3 237 )  ( + T4 344 ) ) ( <= ( + T4 444 )( + T3 227 ) ) )
(or ( <= ( + T3 239 )  ( + T4 444 ) ) ( <= ( + T4 465 )( + T3 237 ) ) )
(or ( <= ( + T3 270 )  ( + T4 465 ) ) ( <= ( + T4 470 )( + T3 239 ) ) )
(or ( <= ( + T3 277 )  ( + T4 470 ) ) ( <= ( + T4 509 )( + T3 270 ) ) )
(or ( <= ( + T3 79 ) T5 ) ( <= ( + T5 21 ) T3 ) )
(or ( <= ( + T3 95 )  ( + T5 21 ) ) ( <= ( + T5 111 )( + T3 79 ) ) )
(or ( <= ( + T3 120 )  ( + T5 111 ) ) ( <= ( + T5 206 )( + T3 95 ) ) )
(or ( <= ( + T3 169 )  ( + T5 206 ) ) ( <= ( + T5 263 )( + T3 120 ) ) )
(or ( <= ( + T3 226 )  ( + T5 263 ) ) ( <= ( + T5 329 )( + T3 169 ) ) )
(or ( <= ( + T3 227 )  ( + T5 329 ) ) ( <= ( + T5 355 )( + T3 226 ) ) )
(or ( <= ( + T3 237 )  ( + T5 355 ) ) ( <= ( + T5 419 )( + T3 227 ) ) )
(or ( <= ( + T3 239 )  ( + T5 419 ) ) ( <= ( + T5 466 )( + T3 237 ) ) )
(or ( <= ( + T3 270 )  ( + T5 466 ) ) ( <= ( + T5 551 )( + T3 239 ) ) )
(or ( <= ( + T3 277 )  ( + T5 551 ) ) ( <= ( + T5 564 )( + T3 270 ) ) )
(or ( <= ( + T3 79 ) T6 ) ( <= ( + T6 2 ) T3 ) )
(or ( <= ( + T3 95 )  ( + T6 2 ) ) ( <= ( + T6 17 )( + T3 79 ) ) )
(or ( <= ( + T3 120 )  ( + T6 17 ) ) ( <= ( + T6 45 )( + T3 95 ) ) )
(or ( <= ( + T3 169 )  ( + T6 45 ) ) ( <= ( + T6 123 )( + T3 120 ) ) )
(or ( <= ( + T3 226 )  ( + T6 123 ) ) ( <= ( + T6 186 )( + T3 169 ) ) )
(or ( <= ( + T3 227 )  ( + T6 186 ) ) ( <= ( + T6 270 )( + T3 226 ) ) )
(or ( <= ( + T3 237 )  ( + T6 270 ) ) ( <= ( + T6 349 )( + T3 227 ) ) )
(or ( <= ( + T3 239 )  ( + T6 349 ) ) ( <= ( + T6 373 )( + T3 237 ) ) )
(or ( <= ( + T3 270 )  ( + T6 373 ) ) ( <= ( + T6 410 )( + T3 239 ) ) )
(or ( <= ( + T3 277 )  ( + T6 410 ) ) ( <= ( + T6 471 )( + T3 270 ) ) )
(or ( <= ( + T3 79 ) T7 ) ( <= ( + T7 30 ) T3 ) )
(or ( <= ( + T3 95 )  ( + T7 30 ) ) ( <= ( + T7 101 )( + T3 79 ) ) )
(or ( <= ( + T3 120 )  ( + T7 101 ) ) ( <= ( + T7 144 )( + T3 95 ) ) )
(or ( <= ( + T3 169 )  ( + T7 144 ) ) ( <= ( + T7 148 )( + T3 120 ) ) )
(or ( <= ( + T3 226 )  ( + T7 148 ) ) ( <= ( + T7 168 )( + T3 169 ) ) )
(or ( <= ( + T3 227 )  ( + T7 168 ) ) ( <= ( + T7 240 )( + T3 226 ) ) )
(or ( <= ( + T3 237 )  ( + T7 240 ) ) ( <= ( + T7 272 )( + T3 227 ) ) )
(or ( <= ( + T3 239 )  ( + T7 272 ) ) ( <= ( + T7 344 )( + T3 237 ) ) )
(or ( <= ( + T3 270 )  ( + T7 344 ) ) ( <= ( + T7 437 )( + T3 239 ) ) )
(or ( <= ( + T3 277 )  ( + T7 437 ) ) ( <= ( + T7 525 )( + T3 270 ) ) )
(or ( <= ( + T3 79 ) T8 ) ( <= ( + T8 10 ) T3 ) )
(or ( <= ( + T3 95 )  ( + T8 10 ) ) ( <= ( + T8 75 )( + T3 79 ) ) )
(or ( <= ( + T3 120 )  ( + T8 75 ) ) ( <= ( + T8 152 )( + T3 95 ) ) )
(or ( <= ( + T3 169 )  ( + T8 152 ) ) ( <= ( + T8 208 )( + T3 120 ) ) )
(or ( <= ( + T3 226 )  ( + T8 208 ) ) ( <= ( + T8 282 )( + T3 169 ) ) )
(or ( <= ( + T3 227 )  ( + T8 282 ) ) ( <= ( + T8 324 )( + T3 226 ) ) )
(or ( <= ( + T3 237 )  ( + T8 324 ) ) ( <= ( + T8 357 )( + T3 227 ) ) )
(or ( <= ( + T3 239 )  ( + T8 357 ) ) ( <= ( + T8 446 )( + T3 237 ) ) )
(or ( <= ( + T3 270 )  ( + T8 446 ) ) ( <= ( + T8 487 )( + T3 239 ) ) )
(or ( <= ( + T3 277 )  ( + T8 487 ) ) ( <= ( + T8 556 )( + T3 270 ) ) )
(or ( <= ( + T4 82 ) T5 ) ( <= ( + T5 21 ) T4 ) )
(or ( <= ( + T4 165 )  ( + T5 21 ) ) ( <= ( + T5 111 )( + T4 82 ) ) )
(or ( <= ( + T4 188 )  ( + T5 111 ) ) ( <= ( + T5 206 )( + T4 165 ) ) )
(or ( <= ( + T4 238 )  ( + T5 206 ) ) ( <= ( + T5 263 )( + T4 188 ) ) )
(or ( <= ( + T4 316 )  ( + T5 263 ) ) ( <= ( + T5 329 )( + T4 238 ) ) )
(or ( <= ( + T4 344 )  ( + T5 329 ) ) ( <= ( + T5 355 )( + T4 316 ) ) )
(or ( <= ( + T4 444 )  ( + T5 355 ) ) ( <= ( + T5 419 )( + T4 344 ) ) )
(or ( <= ( + T4 465 )  ( + T5 419 ) ) ( <= ( + T5 466 )( + T4 444 ) ) )
(or ( <= ( + T4 470 )  ( + T5 466 ) ) ( <= ( + T5 551 )( + T4 465 ) ) )
(or ( <= ( + T4 509 )  ( + T5 551 ) ) ( <= ( + T5 564 )( + T4 470 ) ) )
(or ( <= ( + T4 82 ) T6 ) ( <= ( + T6 2 ) T4 ) )
(or ( <= ( + T4 165 )  ( + T6 2 ) ) ( <= ( + T6 17 )( + T4 82 ) ) )
(or ( <= ( + T4 188 )  ( + T6 17 ) ) ( <= ( + T6 45 )( + T4 165 ) ) )
(or ( <= ( + T4 238 )  ( + T6 45 ) ) ( <= ( + T6 123 )( + T4 188 ) ) )
(or ( <= ( + T4 316 )  ( + T6 123 ) ) ( <= ( + T6 186 )( + T4 238 ) ) )
(or ( <= ( + T4 344 )  ( + T6 186 ) ) ( <= ( + T6 270 )( + T4 316 ) ) )
(or ( <= ( + T4 444 )  ( + T6 270 ) ) ( <= ( + T6 349 )( + T4 344 ) ) )
(or ( <= ( + T4 465 )  ( + T6 349 ) ) ( <= ( + T6 373 )( + T4 444 ) ) )
(or ( <= ( + T4 470 )  ( + T6 373 ) ) ( <= ( + T6 410 )( + T4 465 ) ) )
(or ( <= ( + T4 509 )  ( + T6 410 ) ) ( <= ( + T6 471 )( + T4 470 ) ) )
(or ( <= ( + T4 82 ) T7 ) ( <= ( + T7 30 ) T4 ) )
(or ( <= ( + T4 165 )  ( + T7 30 ) ) ( <= ( + T7 101 )( + T4 82 ) ) )
(or ( <= ( + T4 188 )  ( + T7 101 ) ) ( <= ( + T7 144 )( + T4 165 ) ) )
(or ( <= ( + T4 238 )  ( + T7 144 ) ) ( <= ( + T7 148 )( + T4 188 ) ) )
(or ( <= ( + T4 316 )  ( + T7 148 ) ) ( <= ( + T7 168 )( + T4 238 ) ) )
(or ( <= ( + T4 344 )  ( + T7 168 ) ) ( <= ( + T7 240 )( + T4 316 ) ) )
(or ( <= ( + T4 444 )  ( + T7 240 ) ) ( <= ( + T7 272 )( + T4 344 ) ) )
(or ( <= ( + T4 465 )  ( + T7 272 ) ) ( <= ( + T7 344 )( + T4 444 ) ) )
(or ( <= ( + T4 470 )  ( + T7 344 ) ) ( <= ( + T7 437 )( + T4 465 ) ) )
(or ( <= ( + T4 509 )  ( + T7 437 ) ) ( <= ( + T7 525 )( + T4 470 ) ) )
(or ( <= ( + T4 82 ) T8 ) ( <= ( + T8 10 ) T4 ) )
(or ( <= ( + T4 165 )  ( + T8 10 ) ) ( <= ( + T8 75 )( + T4 82 ) ) )
(or ( <= ( + T4 188 )  ( + T8 75 ) ) ( <= ( + T8 152 )( + T4 165 ) ) )
(or ( <= ( + T4 238 )  ( + T8 152 ) ) ( <= ( + T8 208 )( + T4 188 ) ) )
(or ( <= ( + T4 316 )  ( + T8 208 ) ) ( <= ( + T8 282 )( + T4 238 ) ) )
(or ( <= ( + T4 344 )  ( + T8 282 ) ) ( <= ( + T8 324 )( + T4 316 ) ) )
(or ( <= ( + T4 444 )  ( + T8 324 ) ) ( <= ( + T8 357 )( + T4 344 ) ) )
(or ( <= ( + T4 465 )  ( + T8 357 ) ) ( <= ( + T8 446 )( + T4 444 ) ) )
(or ( <= ( + T4 470 )  ( + T8 446 ) ) ( <= ( + T8 487 )( + T4 465 ) ) )
(or ( <= ( + T4 509 )  ( + T8 487 ) ) ( <= ( + T8 556 )( + T4 470 ) ) )
(or ( <= ( + T5 21 ) T6 ) ( <= ( + T6 2 ) T5 ) )
(or ( <= ( + T5 111 )  ( + T6 2 ) ) ( <= ( + T6 17 )( + T5 21 ) ) )
(or ( <= ( + T5 206 )  ( + T6 17 ) ) ( <= ( + T6 45 )( + T5 111 ) ) )
(or ( <= ( + T5 263 )  ( + T6 45 ) ) ( <= ( + T6 123 )( + T5 206 ) ) )
(or ( <= ( + T5 329 )  ( + T6 123 ) ) ( <= ( + T6 186 )( + T5 263 ) ) )
(or ( <= ( + T5 355 )  ( + T6 186 ) ) ( <= ( + T6 270 )( + T5 329 ) ) )
(or ( <= ( + T5 419 )  ( + T6 270 ) ) ( <= ( + T6 349 )( + T5 355 ) ) )
(or ( <= ( + T5 466 )  ( + T6 349 ) ) ( <= ( + T6 373 )( + T5 419 ) ) )
(or ( <= ( + T5 551 )  ( + T6 373 ) ) ( <= ( + T6 410 )( + T5 466 ) ) )
(or ( <= ( + T5 564 )  ( + T6 410 ) ) ( <= ( + T6 471 )( + T5 551 ) ) )
(or ( <= ( + T5 21 ) T7 ) ( <= ( + T7 30 ) T5 ) )
(or ( <= ( + T5 111 )  ( + T7 30 ) ) ( <= ( + T7 101 )( + T5 21 ) ) )
(or ( <= ( + T5 206 )  ( + T7 101 ) ) ( <= ( + T7 144 )( + T5 111 ) ) )
(or ( <= ( + T5 263 )  ( + T7 144 ) ) ( <= ( + T7 148 )( + T5 206 ) ) )
(or ( <= ( + T5 329 )  ( + T7 148 ) ) ( <= ( + T7 168 )( + T5 263 ) ) )
(or ( <= ( + T5 355 )  ( + T7 168 ) ) ( <= ( + T7 240 )( + T5 329 ) ) )
(or ( <= ( + T5 419 )  ( + T7 240 ) ) ( <= ( + T7 272 )( + T5 355 ) ) )
(or ( <= ( + T5 466 )  ( + T7 272 ) ) ( <= ( + T7 344 )( + T5 419 ) ) )
(or ( <= ( + T5 551 )  ( + T7 344 ) ) ( <= ( + T7 437 )( + T5 466 ) ) )
(or ( <= ( + T5 564 )  ( + T7 437 ) ) ( <= ( + T7 525 )( + T5 551 ) ) )
(or ( <= ( + T5 21 ) T8 ) ( <= ( + T8 10 ) T5 ) )
(or ( <= ( + T5 111 )  ( + T8 10 ) ) ( <= ( + T8 75 )( + T5 21 ) ) )
(or ( <= ( + T5 206 )  ( + T8 75 ) ) ( <= ( + T8 152 )( + T5 111 ) ) )
(or ( <= ( + T5 263 )  ( + T8 152 ) ) ( <= ( + T8 208 )( + T5 206 ) ) )
(or ( <= ( + T5 329 )  ( + T8 208 ) ) ( <= ( + T8 282 )( + T5 263 ) ) )
(or ( <= ( + T5 355 )  ( + T8 282 ) ) ( <= ( + T8 324 )( + T5 329 ) ) )
(or ( <= ( + T5 419 )  ( + T8 324 ) ) ( <= ( + T8 357 )( + T5 355 ) ) )
(or ( <= ( + T5 466 )  ( + T8 357 ) ) ( <= ( + T8 446 )( + T5 419 ) ) )
(or ( <= ( + T5 551 )  ( + T8 446 ) ) ( <= ( + T8 487 )( + T5 466 ) ) )
(or ( <= ( + T5 564 )  ( + T8 487 ) ) ( <= ( + T8 556 )( + T5 551 ) ) )
(or ( <= ( + T6 2 ) T7 ) ( <= ( + T7 30 ) T6 ) )
(or ( <= ( + T6 17 )  ( + T7 30 ) ) ( <= ( + T7 101 )( + T6 2 ) ) )
(or ( <= ( + T6 45 )  ( + T7 101 ) ) ( <= ( + T7 144 )( + T6 17 ) ) )
(or ( <= ( + T6 123 )  ( + T7 144 ) ) ( <= ( + T7 148 )( + T6 45 ) ) )
(or ( <= ( + T6 186 )  ( + T7 148 ) ) ( <= ( + T7 168 )( + T6 123 ) ) )
(or ( <= ( + T6 270 )  ( + T7 168 ) ) ( <= ( + T7 240 )( + T6 186 ) ) )
(or ( <= ( + T6 349 )  ( + T7 240 ) ) ( <= ( + T7 272 )( + T6 270 ) ) )
(or ( <= ( + T6 373 )  ( + T7 272 ) ) ( <= ( + T7 344 )( + T6 349 ) ) )
(or ( <= ( + T6 410 )  ( + T7 344 ) ) ( <= ( + T7 437 )( + T6 373 ) ) )
(or ( <= ( + T6 471 )  ( + T7 437 ) ) ( <= ( + T7 525 )( + T6 410 ) ) )
(or ( <= ( + T6 2 ) T8 ) ( <= ( + T8 10 ) T6 ) )
(or ( <= ( + T6 17 )  ( + T8 10 ) ) ( <= ( + T8 75 )( + T6 2 ) ) )
(or ( <= ( + T6 45 )  ( + T8 75 ) ) ( <= ( + T8 152 )( + T6 17 ) ) )
(or ( <= ( + T6 123 )  ( + T8 152 ) ) ( <= ( + T8 208 )( + T6 45 ) ) )
(or ( <= ( + T6 186 )  ( + T8 208 ) ) ( <= ( + T8 282 )( + T6 123 ) ) )
(or ( <= ( + T6 270 )  ( + T8 282 ) ) ( <= ( + T8 324 )( + T6 186 ) ) )
(or ( <= ( + T6 349 )  ( + T8 324 ) ) ( <= ( + T8 357 )( + T6 270 ) ) )
(or ( <= ( + T6 373 )  ( + T8 357 ) ) ( <= ( + T8 446 )( + T6 349 ) ) )
(or ( <= ( + T6 410 )  ( + T8 446 ) ) ( <= ( + T8 487 )( + T6 373 ) ) )
(or ( <= ( + T6 471 )  ( + T8 487 ) ) ( <= ( + T8 556 )( + T6 410 ) ) )
(or ( <= ( + T7 30 ) T8 ) ( <= ( + T8 10 ) T7 ) )
(or ( <= ( + T7 101 )  ( + T8 10 ) ) ( <= ( + T8 75 )( + T7 30 ) ) )
(or ( <= ( + T7 144 )  ( + T8 75 ) ) ( <= ( + T8 152 )( + T7 101 ) ) )
(or ( <= ( + T7 148 )  ( + T8 152 ) ) ( <= ( + T8 208 )( + T7 144 ) ) )
(or ( <= ( + T7 168 )  ( + T8 208 ) ) ( <= ( + T8 282 )( + T7 148 ) ) )
(or ( <= ( + T7 240 )  ( + T8 282 ) ) ( <= ( + T8 324 )( + T7 168 ) ) )
(or ( <= ( + T7 272 )  ( + T8 324 ) ) ( <= ( + T8 357 )( + T7 240 ) ) )
(or ( <= ( + T7 344 )  ( + T8 357 ) ) ( <= ( + T8 446 )( + T7 272 ) ) )
(or ( <= ( + T7 437 )  ( + T8 446 ) ) ( <= ( + T8 487 )( + T7 344 ) ) )
(or ( <= ( + T7 525 )  ( + T8 487 ) ) ( <= ( + T8 556 )( + T7 437 ) ) )
( <= ( + T1 492 ) Z)
( <= ( + T2 482 ) Z)
( <= ( + T3 277 ) Z)
( <= ( + T4 509 ) Z)
( <= ( + T5 564 ) Z)
( <= ( + T6 471 ) Z)
( <= ( + T7 525 ) Z)
( <= ( + T8 556 ) Z)
( >= T1 0 )
( >= T2 0 )
( >= T3 0 )
( >= T4 0 )
( >= T5 0 )
( >= T6 0 )
( >= T7 0 )
( >= T8 0 )
) )
(minimize Z)
(check-sat)